10
1 0 7
2 0 1
2 1 6
3 0 6
3 1 1
3 2 2
4 0 3
4 1 4
4 2 7
4 3 1
5 0 4
5 1 4
5 2 8
5 3 5
5 4 2
6 0 3
6 1 6
6 2 7
6 3 9
6 4 4
6 5 3
7 0 10
7 1 2
7 2 5
7 3 7
7 4 10
7 5 3
7 6 10
8 0 10
8 1 3
8 2 2
8 3 7
8 4 5
8 5 7
8 6 2
8 7 8
9 0 8
9 1 9
9 2 9
9 3 10
9 4 1
9 5 4
9 6 9
9 7 2
9 8 1
